NAME          TINYKNAP
ROWS
 N  COST
 L  WEIGHT
COLUMNS
    X1        COST          -10   WEIGHT         2
    X2        COST          -15   WEIGHT         3
    X3        COST           -7   WEIGHT         1
RHS
    RHS       WEIGHT          5
BOUNDS
 BV BND       X1
 BV BND       X2
 BV BND       X3
ENDATA
